p cnf 58 204
3 -1 0
3 2 0
1 -2 -3 0
4 5 -6 0
-4 -5 -6 0
4 -5 6 0
-4 5 6 0
-7 -1 0
-7 -6 0
1 6 7 0
8 7 0
8 -1 0
-7 1 -8 0
-7 -4 -9 0
7 4 -9 0
-7 4 9 0
7 -4 9 0
10 8 0
10 -9 0
-8 9 -10 0
1 11 0
-1 11 0
12 -10 0
12 -11 0
10 11 -12 0
-4 13 -14 0
4 -13 -14 0
-4 -13 14 0
4 13 14 0
-15 7 0
-15 14 0
-7 -14 15 0
18 -17 0
18 17 0
-19 -16 0
-19 -18 0
16 18 19 0
20 19 0
20 -9 0
-19 9 -20 0
16 4 -22 0
-16 -4 -22 0
16 -4 22 0
-16 4 22 0
21 -22 -23 0
-21 22 -23 0
21 22 23 0
-21 -22 23 0
-24 -21 0
-24 23 0
21 -23 24 0
-25 17 0
-25 24 0
-17 -24 25 0
26 25 0
26 21 0
-25 -21 -26 0
-27 20 0
-27 26 0
-20 -26 27 0
28 1 0
28 26 0
-1 -26 -28 0
-16 -19 -29 0
16 19 -29 0
-16 19 29 0
16 -19 29 0
-16 10 -30 0
16 -10 -30 0
-16 -10 30 0
16 10 30 0
19 14 -31 0
-19 -14 -31 0
19 -14 31 0
-19 14 31 0
32 -30 0
32 -31 0
30 31 -32 0
33 -29 0
33 32 0
29 -32 -33 0
34 -28 0
34 -33 0
28 33 -34 0
35 27 0
35 -34 0
-27 34 -35 0
36 15 0
36 -35 0
-15 35 -36 0
14 23 -37 0
-14 -23 -37 0
14 -23 37 0
-14 23 37 0
39 -14 0
39 -13 0
14 13 -39 0
40 38 0
40 -39 0
-38 39 -40 0
-41 37 0
-41 40 0
-37 -40 41 0
42 -6 0
42 1 0
6 -1 -42 0
23 42 -43 0
-23 -42 -43 0
23 -42 43 0
-23 42 43 0
44 -10 0
44 14 0
10 -14 -44 0
-43 44 -45 0
43 -44 -45 0
-43 -44 45 0
43 44 45 0
46 -41 0
46 -45 0
41 45 -46 0
47 36 0
47 46 0
-36 -46 -47 0
-48 12 0
-48 -47 0
-12 47 48 0
-49 6 0
-49 21 0
-6 -21 49 0
-48 -49 -50 0
48 49 -50 0
-48 49 50 0
48 -49 50 0
3 50 -51 0
-3 -50 -51 0
3 -50 51 0
-3 50 51 0
22 14 -52 0
-22 -14 -52 0
22 -14 52 0
-22 14 52 0
-53 -38 0
-53 -22 0
38 22 53 0
54 -52 0
54 53 0
52 -53 -54 0
56 55 0
56 -25 0
-55 25 -56 0
-57 54 0
-57 -56 0
-54 56 57 0
58 51 0
58 57 0
-51 -57 -58 0
10 27 0
5 17 -36 18 54 0
-57 -41 58 0
44 41 36 5 -4 0
32 -7 1 0
-30 -50 57 -22 4 20 0
-11 -31 -45 21 52 0
51 17 53 -24 34 0
-58 -27 21 -56 -35 24 0
57 -33 0
-52 -13 -22 -17 0
-54 -33 0
30 -45 26 35 55 0
30 50 25 -45 -11 0
37 20 39 -57 0
41 6 51 0
-40 4 -27 0
32 17 -3 -41 0
-7 -36 11 0
14 -4 -28 0
43 6 -2 -49 0
-35 -46 52 0
-4 -38 7 -28 0
-43 -20 -36 0
10 30 0
2 8 56 -33 0
-14 -1 55 0
11 4 38 -14 -58 0
55 57 -31 38 0
50 49 -38 -14 0
30 -8 0
-11 38 36 14 34 -48 0
45 -3 -23 51 0
21 -14 -9 22 -35 0
-47 -14 -48 2 -51 0
50 -36 0
21 -31 -6 15 0
-17 -37 0
27 -30 9 47 0
-13 -45 0
-27 21 -35 0
54 -48 -50 -44 -46 0
27 -52 0
16 -34 30 -45 -39 0
-19 26 -24 20 -15 0
54 51 -40 -46 0
-54 -38 -35 -39 41 0
58 0
